p edge 23 35
e 1 18
e 1 3
e 1 22
e 1 8
e 2 12
e 2 23
e 2 14
e 2 20
e 2 8
e 3 4
e 5 23
e 5 11
e 6 20
e 6 11
e 6 21
e 7 10
e 7 21
e 8 22
e 8 23
e 8 14
e 8 20
e 9 23
e 10 21
e 12 21
e 12 23
e 12 19
e 13 14
e 13 17
e 14 23
e 14 20
e 15 17
e 15 16
e 16 17
e 19 23
e 20 23
